saida/PL_exemplo4.lp
0 150 230 120 
180 0 120 0 
0 0 0 200 
Primal
Balanceado: Sim
Status: Optimal
Valor Fobj: 9440
Tempo: 0.001309 second(s)